unsat
(:elim-unconstrained  2
 :max-memory          18.82
 :memory              18.52
 :nlsat-arith-var     3
 :nlsat-atoms         7
 :nlsat-bool-var      1
 :nlsat-clauses       6
 :nlsat-conflicts     2
 :nlsat-propagations  5
 :nlsat-stages        2
 :num-allocs          184629
 :rlimit-count        64884
 :solve-eqs-elim-vars 1
 :solve-eqs-steps     1
 :time                0.12
 :total-time          0.13)
